p tw 231 46201 2 
1 3 
1 4 
1 5 
1 6 
1 7 
1 8 
1 9 
1 10 
1 11 
1 12 
1 13 
1 14 
1 15 
1 16 
1 17 
1 18 
1 19 
1 20 
1 21 
1 22 
1 23 
1 24 
1 25 
1 26 
1 27 
1 28 
1 29 
1 30 
1 31 
1 32 
1 33 
1 34 
1 35 
1 36 
1 37 
1 38 
1 39 
1 40 
1 41 
2 3 
2 4 
2 5 
2 6 
2 7 
2 8 
2 9 
2 10 
2 11 
2 12 
2 13 
2 14 
2 15 
2 16 
2 17 
2 18 
2 19 
2 20 
2 21 
2 22 
2 42 
2 43 
2 44 
2 45 
2 46 
2 47 
2 48 
2 49 
2 50 
2 51 
2 52 
2 53 
2 54 
2 55 
2 56 
2 57 
2 58 
2 59 
2 60 
3 4 
3 5 
3 6 
3 7 
3 8 
3 9 
3 10 
3 11 
3 12 
3 13 
3 14 
3 15 
3 16 
3 17 
3 18 
3 19 
3 20 
3 21 
3 23 
3 42 
3 61 
3 62 
3 63 
3 64 
3 65 
3 66 
3 67 
3 68 
3 69 
3 70 
3 71 
3 72 
3 73 
3 74 
3 75 
3 76 
3 77 
3 78 
4 5 
4 6 
4 7 
4 8 
4 9 
4 10 
4 11 
4 12 
4 13 
4 14 
4 15 
4 16 
4 17 
4 18 
4 19 
4 20 
4 21 
4 24 
4 43 
4 61 
4 79 
4 80 
4 81 
4 82 
4 83 
4 84 
4 85 
4 86 
4 87 
4 88 
4 89 
4 90 
4 91 
4 92 
4 93 
4 94 
4 95 
5 6 
5 7 
5 8 
5 9 
5 10 
5 11 
5 12 
5 13 
5 14 
5 15 
5 16 
5 17 
5 18 
5 19 
5 20 
5 21 
5 25 
5 44 
5 62 
5 79 
5 96 
5 97 
5 98 
5 99 
5 100 
5 101 
5 102 
5 103 
5 104 
5 105 
5 106 
5 107 
5 108 
5 109 
5 110 
5 111 
6 7 
6 8 
6 9 
6 10 
6 11 
6 12 
6 13 
6 14 
6 15 
6 16 
6 17 
6 18 
6 19 
6 20 
6 21 
6 26 
6 45 
6 63 
6 80 
6 96 
6 112 
6 113 
6 114 
6 115 
6 116 
6 117 
6 118 
6 119 
6 120 
6 121 
6 122 
6 123 
6 124 
6 125 
6 126 
7 8 
7 9 
7 10 
7 11 
7 12 
7 13 
7 14 
7 15 
7 16 
7 17 
7 18 
7 19 
7 20 
7 21 
7 27 
7 46 
7 64 
7 81 
7 97 
7 112 
7 127 
7 128 
7 129 
7 130 
7 131 
7 132 
7 133 
7 134 
7 135 
7 136 
7 137 
7 138 
7 139 
7 140 
8 9 
8 10 
8 11 
8 12 
8 13 
8 14 
8 15 
8 16 
8 17 
8 18 
8 19 
8 20 
8 21 
8 28 
8 47 
8 65 
8 82 
8 98 
8 113 
8 127 
8 141 
8 142 
8 143 
8 144 
8 145 
8 146 
8 147 
8 148 
8 149 
8 150 
8 151 
8 152 
8 153 
9 10 
9 11 
9 12 
9 13 
9 14 
9 15 
9 16 
9 17 
9 18 
9 19 
9 20 
9 21 
9 29 
9 48 
9 66 
9 83 
9 99 
9 114 
9 128 
9 141 
9 154 
9 155 
9 156 
9 157 
9 158 
9 159 
9 160 
9 161 
9 162 
9 163 
9 164 
9 165 
10 11 
10 12 
10 13 
10 14 
10 15 
10 16 
10 17 
10 18 
10 19 
10 20 
10 21 
10 30 
10 49 
10 67 
10 84 
10 100 
10 115 
10 129 
10 142 
10 154 
10 166 
10 167 
10 168 
10 169 
10 170 
10 171 
10 172 
10 173 
10 174 
10 175 
10 176 
11 12 
11 13 
11 14 
11 15 
11 16 
11 17 
11 18 
11 19 
11 20 
11 21 
11 31 
11 50 
11 68 
11 85 
11 101 
11 116 
11 130 
11 143 
11 155 
11 166 
11 177 
11 178 
11 179 
11 180 
11 181 
11 182 
11 183 
11 184 
11 185 
11 186 
12 13 
12 14 
12 15 
12 16 
12 17 
12 18 
12 19 
12 20 
12 21 
12 32 
12 51 
12 69 
12 86 
12 102 
12 117 
12 131 
12 144 
12 156 
12 167 
12 177 
12 187 
12 188 
12 189 
12 190 
12 191 
12 192 
12 193 
12 194 
12 195 
13 14 
13 15 
13 16 
13 17 
13 18 
13 19 
13 20 
13 21 
13 33 
13 52 
13 70 
13 87 
13 103 
13 118 
13 132 
13 145 
13 157 
13 168 
13 178 
13 187 
13 196 
13 197 
13 198 
13 199 
13 200 
13 201 
13 202 
13 203 
14 15 
14 16 
14 17 
14 18 
14 19 
14 20 
14 21 
14 34 
14 53 
14 71 
14 88 
14 104 
14 119 
14 133 
14 146 
14 158 
14 169 
14 179 
14 188 
14 196 
14 204 
14 205 
14 206 
14 207 
14 208 
14 209 
14 210 
15 16 
15 17 
15 18 
15 19 
15 20 
15 21 
15 35 
15 54 
15 72 
15 89 
15 105 
15 120 
15 134 
15 147 
15 159 
15 170 
15 180 
15 189 
15 197 
15 204 
15 211 
15 212 
15 213 
15 214 
15 215 
15 216 
16 17 
16 18 
16 19 
16 20 
16 21 
16 36 
16 55 
16 73 
16 90 
16 106 
16 121 
16 135 
16 148 
16 160 
16 171 
16 181 
16 190 
16 198 
16 205 
16 211 
16 217 
16 218 
16 219 
16 220 
16 221 
17 18 
17 19 
17 20 
17 21 
17 37 
17 56 
17 74 
17 91 
17 107 
17 122 
17 136 
17 149 
17 161 
17 172 
17 182 
17 191 
17 199 
17 206 
17 212 
17 217 
17 222 
17 223 
17 224 
17 225 
18 19 
18 20 
18 21 
18 38 
18 57 
18 75 
18 92 
18 108 
18 123 
18 137 
18 150 
18 162 
18 173 
18 183 
18 192 
18 200 
18 207 
18 213 
18 218 
18 222 
18 226 
18 227 
18 228 
19 20 
19 21 
19 39 
19 58 
19 76 
19 93 
19 109 
19 124 
19 138 
19 151 
19 163 
19 174 
19 184 
19 193 
19 201 
19 208 
19 214 
19 219 
19 223 
19 226 
19 229 
19 230 
20 21 
20 40 
20 59 
20 77 
20 94 
20 110 
20 125 
20 139 
20 152 
20 164 
20 175 
20 185 
20 194 
20 202 
20 209 
20 215 
20 220 
20 224 
20 227 
20 229 
20 231 
21 41 
21 60 
21 78 
21 95 
21 111 
21 126 
21 140 
21 153 
21 165 
21 176 
21 186 
21 195 
21 203 
21 210 
21 216 
21 221 
21 225 
21 228 
21 230 
21 231 
22 23 
22 24 
22 25 
22 26 
22 27 
22 28 
22 29 
22 30 
22 31 
22 32 
22 33 
22 34 
22 35 
22 36 
22 37 
22 38 
22 39 
22 40 
22 41 
22 42 
22 43 
22 44 
22 45 
22 46 
22 47 
22 48 
22 49 
22 50 
22 51 
22 52 
22 53 
22 54 
22 55 
22 56 
22 57 
22 58 
22 59 
22 60 
23 24 
23 25 
23 26 
23 27 
23 28 
23 29 
23 30 
23 31 
23 32 
23 33 
23 34 
23 35 
23 36 
23 37 
23 38 
23 39 
23 40 
23 41 
23 42 
23 61 
23 62 
23 63 
23 64 
23 65 
23 66 
23 67 
23 68 
23 69 
23 70 
23 71 
23 72 
23 73 
23 74 
23 75 
23 76 
23 77 
23 78 
24 25 
24 26 
24 27 
24 28 
24 29 
24 30 
24 31 
24 32 
24 33 
24 34 
24 35 
24 36 
24 37 
24 38 
24 39 
24 40 
24 41 
24 43 
24 61 
24 79 
24 80 
24 81 
24 82 
24 83 
24 84 
24 85 
24 86 
24 87 
24 88 
24 89 
24 90 
24 91 
24 92 
24 93 
24 94 
24 95 
25 26 
25 27 
25 28 
25 29 
25 30 
25 31 
25 32 
25 33 
25 34 
25 35 
25 36 
25 37 
25 38 
25 39 
25 40 
25 41 
25 44 
25 62 
25 79 
25 96 
25 97 
25 98 
25 99 
25 100 
25 101 
25 102 
25 103 
25 104 
25 105 
25 106 
25 107 
25 108 
25 109 
25 110 
25 111 
26 27 
26 28 
26 29 
26 30 
26 31 
26 32 
26 33 
26 34 
26 35 
26 36 
26 37 
26 38 
26 39 
26 40 
26 41 
26 45 
26 63 
26 80 
26 96 
26 112 
26 113 
26 114 
26 115 
26 116 
26 117 
26 118 
26 119 
26 120 
26 121 
26 122 
26 123 
26 124 
26 125 
26 126 
27 28 
27 29 
27 30 
27 31 
27 32 
27 33 
27 34 
27 35 
27 36 
27 37 
27 38 
27 39 
27 40 
27 41 
27 46 
27 64 
27 81 
27 97 
27 112 
27 127 
27 128 
27 129 
27 130 
27 131 
27 132 
27 133 
27 134 
27 135 
27 136 
27 137 
27 138 
27 139 
27 140 
28 29 
28 30 
28 31 
28 32 
28 33 
28 34 
28 35 
28 36 
28 37 
28 38 
28 39 
28 40 
28 41 
28 47 
28 65 
28 82 
28 98 
28 113 
28 127 
28 141 
28 142 
28 143 
28 144 
28 145 
28 146 
28 147 
28 148 
28 149 
28 150 
28 151 
28 152 
28 153 
29 30 
29 31 
29 32 
29 33 
29 34 
29 35 
29 36 
29 37 
29 38 
29 39 
29 40 
29 41 
29 48 
29 66 
29 83 
29 99 
29 114 
29 128 
29 141 
29 154 
29 155 
29 156 
29 157 
29 158 
29 159 
29 160 
29 161 
29 162 
29 163 
29 164 
29 165 
30 31 
30 32 
30 33 
30 34 
30 35 
30 36 
30 37 
30 38 
30 39 
30 40 
30 41 
30 49 
30 67 
30 84 
30 100 
30 115 
30 129 
30 142 
30 154 
30 166 
30 167 
30 168 
30 169 
30 170 
30 171 
30 172 
30 173 
30 174 
30 175 
30 176 
31 32 
31 33 
31 34 
31 35 
31 36 
31 37 
31 38 
31 39 
31 40 
31 41 
31 50 
31 68 
31 85 
31 101 
31 116 
31 130 
31 143 
31 155 
31 166 
31 177 
31 178 
31 179 
31 180 
31 181 
31 182 
31 183 
31 184 
31 185 
31 186 
32 33 
32 34 
32 35 
32 36 
32 37 
32 38 
32 39 
32 40 
32 41 
32 51 
32 69 
32 86 
32 102 
32 117 
32 131 
32 144 
32 156 
32 167 
32 177 
32 187 
32 188 
32 189 
32 190 
32 191 
32 192 
32 193 
32 194 
32 195 
33 34 
33 35 
33 36 
33 37 
33 38 
33 39 
33 40 
33 41 
33 52 
33 70 
33 87 
33 103 
33 118 
33 132 
33 145 
33 157 
33 168 
33 178 
33 187 
33 196 
33 197 
33 198 
33 199 
33 200 
33 201 
33 202 
33 203 
34 35 
34 36 
34 37 
34 38 
34 39 
34 40 
34 41 
34 53 
34 71 
34 88 
34 104 
34 119 
34 133 
34 146 
34 158 
34 169 
34 179 
34 188 
34 196 
34 204 
34 205 
34 206 
34 207 
34 208 
34 209 
34 210 
35 36 
35 37 
35 38 
35 39 
35 40 
35 41 
35 54 
35 72 
35 89 
35 105 
35 120 
35 134 
35 147 
35 159 
35 170 
35 180 
35 189 
35 197 
35 204 
35 211 
35 212 
35 213 
35 214 
35 215 
35 216 
36 37 
36 38 
36 39 
36 40 
36 41 
36 55 
36 73 
36 90 
36 106 
36 121 
36 135 
36 148 
36 160 
36 171 
36 181 
36 190 
36 198 
36 205 
36 211 
36 217 
36 218 
36 219 
36 220 
36 221 
37 38 
37 39 
37 40 
37 41 
37 56 
37 74 
37 91 
37 107 
37 122 
37 136 
37 149 
37 161 
37 172 
37 182 
37 191 
37 199 
37 206 
37 212 
37 217 
37 222 
37 223 
37 224 
37 225 
38 39 
38 40 
38 41 
38 57 
38 75 
38 92 
38 108 
38 123 
38 137 
38 150 
38 162 
38 173 
38 183 
38 192 
38 200 
38 207 
38 213 
38 218 
38 222 
38 226 
38 227 
38 228 
39 40 
39 41 
39 58 
39 76 
39 93 
39 109 
39 124 
39 138 
39 151 
39 163 
39 174 
39 184 
39 193 
39 201 
39 208 
39 214 
39 219 
39 223 
39 226 
39 229 
39 230 
40 41 
40 59 
40 77 
40 94 
40 110 
40 125 
40 139 
40 152 
40 164 
40 175 
40 185 
40 194 
40 202 
40 209 
40 215 
40 220 
40 224 
40 227 
40 229 
40 231 
41 60 
41 78 
41 95 
41 111 
41 126 
41 140 
41 153 
41 165 
41 176 
41 186 
41 195 
41 203 
41 210 
41 216 
41 221 
41 225 
41 228 
41 230 
41 231 
42 43 
42 44 
42 45 
42 46 
42 47 
42 48 
42 49 
42 50 
42 51 
42 52 
42 53 
42 54 
42 55 
42 56 
42 57 
42 58 
42 59 
42 60 
42 61 
42 62 
42 63 
42 64 
42 65 
42 66 
42 67 
42 68 
42 69 
42 70 
42 71 
42 72 
42 73 
42 74 
42 75 
42 76 
42 77 
42 78 
43 44 
43 45 
43 46 
43 47 
43 48 
43 49 
43 50 
43 51 
43 52 
43 53 
43 54 
43 55 
43 56 
43 57 
43 58 
43 59 
43 60 
43 61 
43 79 
43 80 
43 81 
43 82 
43 83 
43 84 
43 85 
43 86 
43 87 
43 88 
43 89 
43 90 
43 91 
43 92 
43 93 
43 94 
43 95 
44 45 
44 46 
44 47 
44 48 
44 49 
44 50 
44 51 
44 52 
44 53 
44 54 
44 55 
44 56 
44 57 
44 58 
44 59 
44 60 
44 62 
44 79 
44 96 
44 97 
44 98 
44 99 
44 100 
44 101 
44 102 
44 103 
44 104 
44 105 
44 106 
44 107 
44 108 
44 109 
44 110 
44 111 
45 46 
45 47 
45 48 
45 49 
45 50 
45 51 
45 52 
45 53 
45 54 
45 55 
45 56 
45 57 
45 58 
45 59 
45 60 
45 63 
45 80 
45 96 
45 112 
45 113 
45 114 
45 115 
45 116 
45 117 
45 118 
45 119 
45 120 
45 121 
45 122 
45 123 
45 124 
45 125 
45 126 
46 47 
46 48 
46 49 
46 50 
46 51 
46 52 
46 53 
46 54 
46 55 
46 56 
46 57 
46 58 
46 59 
46 60 
46 64 
46 81 
46 97 
46 112 
46 127 
46 128 
46 129 
46 130 
46 131 
46 132 
46 133 
46 134 
46 135 
46 136 
46 137 
46 138 
46 139 
46 140 
47 48 
47 49 
47 50 
47 51 
47 52 
47 53 
47 54 
47 55 
47 56 
47 57 
47 58 
47 59 
47 60 
47 65 
47 82 
47 98 
47 113 
47 127 
47 141 
47 142 
47 143 
47 144 
47 145 
47 146 
47 147 
47 148 
47 149 
47 150 
47 151 
47 152 
47 153 
48 49 
48 50 
48 51 
48 52 
48 53 
48 54 
48 55 
48 56 
48 57 
48 58 
48 59 
48 60 
48 66 
48 83 
48 99 
48 114 
48 128 
48 141 
48 154 
48 155 
48 156 
48 157 
48 158 
48 159 
48 160 
48 161 
48 162 
48 163 
48 164 
48 165 
49 50 
49 51 
49 52 
49 53 
49 54 
49 55 
49 56 
49 57 
49 58 
49 59 
49 60 
49 67 
49 84 
49 100 
49 115 
49 129 
49 142 
49 154 
49 166 
49 167 
49 168 
49 169 
49 170 
49 171 
49 172 
49 173 
49 174 
49 175 
49 176 
50 51 
50 52 
50 53 
50 54 
50 55 
50 56 
50 57 
50 58 
50 59 
50 60 
50 68 
50 85 
50 101 
50 116 
50 130 
50 143 
50 155 
50 166 
50 177 
50 178 
50 179 
50 180 
50 181 
50 182 
50 183 
50 184 
50 185 
50 186 
51 52 
51 53 
51 54 
51 55 
51 56 
51 57 
51 58 
51 59 
51 60 
51 69 
51 86 
51 102 
51 117 
51 131 
51 144 
51 156 
51 167 
51 177 
51 187 
51 188 
51 189 
51 190 
51 191 
51 192 
51 193 
51 194 
51 195 
52 53 
52 54 
52 55 
52 56 
52 57 
52 58 
52 59 
52 60 
52 70 
52 87 
52 103 
52 118 
52 132 
52 145 
52 157 
52 168 
52 178 
52 187 
52 196 
52 197 
52 198 
52 199 
52 200 
52 201 
52 202 
52 203 
53 54 
53 55 
53 56 
53 57 
53 58 
53 59 
53 60 
53 71 
53 88 
53 104 
53 119 
53 133 
53 146 
53 158 
53 169 
53 179 
53 188 
53 196 
53 204 
53 205 
53 206 
53 207 
53 208 
53 209 
53 210 
54 55 
54 56 
54 57 
54 58 
54 59 
54 60 
54 72 
54 89 
54 105 
54 120 
54 134 
54 147 
54 159 
54 170 
54 180 
54 189 
54 197 
54 204 
54 211 
54 212 
54 213 
54 214 
54 215 
54 216 
55 56 
55 57 
55 58 
55 59 
55 60 
55 73 
55 90 
55 106 
55 121 
55 135 
55 148 
55 160 
55 171 
55 181 
55 190 
55 198 
55 205 
55 211 
55 217 
55 218 
55 219 
55 220 
55 221 
56 57 
56 58 
56 59 
56 60 
56 74 
56 91 
56 107 
56 122 
56 136 
56 149 
56 161 
56 172 
56 182 
56 191 
56 199 
56 206 
56 212 
56 217 
56 222 
56 223 
56 224 
56 225 
57 58 
57 59 
57 60 
57 75 
57 92 
57 108 
57 123 
57 137 
57 150 
57 162 
57 173 
57 183 
57 192 
57 200 
57 207 
57 213 
57 218 
57 222 
57 226 
57 227 
57 228 
58 59 
58 60 
58 76 
58 93 
58 109 
58 124 
58 138 
58 151 
58 163 
58 174 
58 184 
58 193 
58 201 
58 208 
58 214 
58 219 
58 223 
58 226 
58 229 
58 230 
59 60 
59 77 
59 94 
59 110 
59 125 
59 139 
59 152 
59 164 
59 175 
59 185 
59 194 
59 202 
59 209 
59 215 
59 220 
59 224 
59 227 
59 229 
59 231 
60 78 
60 95 
60 111 
60 126 
60 140 
60 153 
60 165 
60 176 
60 186 
60 195 
60 203 
60 210 
60 216 
60 221 
60 225 
60 228 
60 230 
60 231 
61 62 
61 63 
61 64 
61 65 
61 66 
61 67 
61 68 
61 69 
61 70 
61 71 
61 72 
61 73 
61 74 
61 75 
61 76 
61 77 
61 78 
61 79 
61 80 
61 81 
61 82 
61 83 
61 84 
61 85 
61 86 
61 87 
61 88 
61 89 
61 90 
61 91 
61 92 
61 93 
61 94 
61 95 
62 63 
62 64 
62 65 
62 66 
62 67 
62 68 
62 69 
62 70 
62 71 
62 72 
62 73 
62 74 
62 75 
62 76 
62 77 
62 78 
62 79 
62 96 
62 97 
62 98 
62 99 
62 100 
62 101 
62 102 
62 103 
62 104 
62 105 
62 106 
62 107 
62 108 
62 109 
62 110 
62 111 
63 64 
63 65 
63 66 
63 67 
63 68 
63 69 
63 70 
63 71 
63 72 
63 73 
63 74 
63 75 
63 76 
63 77 
63 78 
63 80 
63 96 
63 112 
63 113 
63 114 
63 115 
63 116 
63 117 
63 118 
63 119 
63 120 
63 121 
63 122 
63 123 
63 124 
63 125 
63 126 
64 65 
64 66 
64 67 
64 68 
64 69 
64 70 
64 71 
64 72 
64 73 
64 74 
64 75 
64 76 
64 77 
64 78 
64 81 
64 97 
64 112 
64 127 
64 128 
64 129 
64 130 
64 131 
64 132 
64 133 
64 134 
64 135 
64 136 
64 137 
64 138 
64 139 
64 140 
65 66 
65 67 
65 68 
65 69 
65 70 
65 71 
65 72 
65 73 
65 74 
65 75 
65 76 
65 77 
65 78 
65 82 
65 98 
65 113 
65 127 
65 141 
65 142 
65 143 
65 144 
65 145 
65 146 
65 147 
65 148 
65 149 
65 150 
65 151 
65 152 
65 153 
66 67 
66 68 
66 69 
66 70 
66 71 
66 72 
66 73 
66 74 
66 75 
66 76 
66 77 
66 78 
66 83 
66 99 
66 114 
66 128 
66 141 
66 154 
66 155 
66 156 
66 157 
66 158 
66 159 
66 160 
66 161 
66 162 
66 163 
66 164 
66 165 
67 68 
67 69 
67 70 
67 71 
67 72 
67 73 
67 74 
67 75 
67 76 
67 77 
67 78 
67 84 
67 100 
67 115 
67 129 
67 142 
67 154 
67 166 
67 167 
67 168 
67 169 
67 170 
67 171 
67 172 
67 173 
67 174 
67 175 
67 176 
68 69 
68 70 
68 71 
68 72 
68 73 
68 74 
68 75 
68 76 
68 77 
68 78 
68 85 
68 101 
68 116 
68 130 
68 143 
68 155 
68 166 
68 177 
68 178 
68 179 
68 180 
68 181 
68 182 
68 183 
68 184 
68 185 
68 186 
69 70 
69 71 
69 72 
69 73 
69 74 
69 75 
69 76 
69 77 
69 78 
69 86 
69 102 
69 117 
69 131 
69 144 
69 156 
69 167 
69 177 
69 187 
69 188 
69 189 
69 190 
69 191 
69 192 
69 193 
69 194 
69 195 
70 71 
70 72 
70 73 
70 74 
70 75 
70 76 
70 77 
70 78 
70 87 
70 103 
70 118 
70 132 
70 145 
70 157 
70 168 
70 178 
70 187 
70 196 
70 197 
70 198 
70 199 
70 200 
70 201 
70 202 
70 203 
71 72 
71 73 
71 74 
71 75 
71 76 
71 77 
71 78 
71 88 
71 104 
71 119 
71 133 
71 146 
71 158 
71 169 
71 179 
71 188 
71 196 
71 204 
71 205 
71 206 
71 207 
71 208 
71 209 
71 210 
72 73 
72 74 
72 75 
72 76 
72 77 
72 78 
72 89 
72 105 
72 120 
72 134 
72 147 
72 159 
72 170 
72 180 
72 189 
72 197 
72 204 
72 211 
72 212 
72 213 
72 214 
72 215 
72 216 
73 74 
73 75 
73 76 
73 77 
73 78 
73 90 
73 106 
73 121 
73 135 
73 148 
73 160 
73 171 
73 181 
73 190 
73 198 
73 205 
73 211 
73 217 
73 218 
73 219 
73 220 
73 221 
74 75 
74 76 
74 77 
74 78 
74 91 
74 107 
74 122 
74 136 
74 149 
74 161 
74 172 
74 182 
74 191 
74 199 
74 206 
74 212 
74 217 
74 222 
74 223 
74 224 
74 225 
75 76 
75 77 
75 78 
75 92 
75 108 
75 123 
75 137 
75 150 
75 162 
75 173 
75 183 
75 192 
75 200 
75 207 
75 213 
75 218 
75 222 
75 226 
75 227 
75 228 
76 77 
76 78 
76 93 
76 109 
76 124 
76 138 
76 151 
76 163 
76 174 
76 184 
76 193 
76 201 
76 208 
76 214 
76 219 
76 223 
76 226 
76 229 
76 230 
77 78 
77 94 
77 110 
77 125 
77 139 
77 152 
77 164 
77 175 
77 185 
77 194 
77 202 
77 209 
77 215 
77 220 
77 224 
77 227 
77 229 
77 231 
78 95 
78 111 
78 126 
78 140 
78 153 
78 165 
78 176 
78 186 
78 195 
78 203 
78 210 
78 216 
78 221 
78 225 
78 228 
78 230 
78 231 
79 80 
79 81 
79 82 
79 83 
79 84 
79 85 
79 86 
79 87 
79 88 
79 89 
79 90 
79 91 
79 92 
79 93 
79 94 
79 95 
79 96 
79 97 
79 98 
79 99 
79 100 
79 101 
79 102 
79 103 
79 104 
79 105 
79 106 
79 107 
79 108 
79 109 
79 110 
79 111 
80 81 
80 82 
80 83 
80 84 
80 85 
80 86 
80 87 
80 88 
80 89 
80 90 
80 91 
80 92 
80 93 
80 94 
80 95 
80 96 
80 112 
80 113 
80 114 
80 115 
80 116 
80 117 
80 118 
80 119 
80 120 
80 121 
80 122 
80 123 
80 124 
80 125 
80 126 
81 82 
81 83 
81 84 
81 85 
81 86 
81 87 
81 88 
81 89 
81 90 
81 91 
81 92 
81 93 
81 94 
81 95 
81 97 
81 112 
81 127 
81 128 
81 129 
81 130 
81 131 
81 132 
81 133 
81 134 
81 135 
81 136 
81 137 
81 138 
81 139 
81 140 
82 83 
82 84 
82 85 
82 86 
82 87 
82 88 
82 89 
82 90 
82 91 
82 92 
82 93 
82 94 
82 95 
82 98 
82 113 
82 127 
82 141 
82 142 
82 143 
82 144 
82 145 
82 146 
82 147 
82 148 
82 149 
82 150 
82 151 
82 152 
82 153 
83 84 
83 85 
83 86 
83 87 
83 88 
83 89 
83 90 
83 91 
83 92 
83 93 
83 94 
83 95 
83 99 
83 114 
83 128 
83 141 
83 154 
83 155 
83 156 
83 157 
83 158 
83 159 
83 160 
83 161 
83 162 
83 163 
83 164 
83 165 
84 85 
84 86 
84 87 
84 88 
84 89 
84 90 
84 91 
84 92 
84 93 
84 94 
84 95 
84 100 
84 115 
84 129 
84 142 
84 154 
84 166 
84 167 
84 168 
84 169 
84 170 
84 171 
84 172 
84 173 
84 174 
84 175 
84 176 
85 86 
85 87 
85 88 
85 89 
85 90 
85 91 
85 92 
85 93 
85 94 
85 95 
85 101 
85 116 
85 130 
85 143 
85 155 
85 166 
85 177 
85 178 
85 179 
85 180 
85 181 
85 182 
85 183 
85 184 
85 185 
85 186 
86 87 
86 88 
86 89 
86 90 
86 91 
86 92 
86 93 
86 94 
86 95 
86 102 
86 117 
86 131 
86 144 
86 156 
86 167 
86 177 
86 187 
86 188 
86 189 
86 190 
86 191 
86 192 
86 193 
86 194 
86 195 
87 88 
87 89 
87 90 
87 91 
87 92 
87 93 
87 94 
87 95 
87 103 
87 118 
87 132 
87 145 
87 157 
87 168 
87 178 
87 187 
87 196 
87 197 
87 198 
87 199 
87 200 
87 201 
87 202 
87 203 
88 89 
88 90 
88 91 
88 92 
88 93 
88 94 
88 95 
88 104 
88 119 
88 133 
88 146 
88 158 
88 169 
88 179 
88 188 
88 196 
88 204 
88 205 
88 206 
88 207 
88 208 
88 209 
88 210 
89 90 
89 91 
89 92 
89 93 
89 94 
89 95 
89 105 
89 120 
89 134 
89 147 
89 159 
89 170 
89 180 
89 189 
89 197 
89 204 
89 211 
89 212 
89 213 
89 214 
89 215 
89 216 
90 91 
90 92 
90 93 
90 94 
90 95 
90 106 
90 121 
90 135 
90 148 
90 160 
90 171 
90 181 
90 190 
90 198 
90 205 
90 211 
90 217 
90 218 
90 219 
90 220 
90 221 
91 92 
91 93 
91 94 
91 95 
91 107 
91 122 
91 136 
91 149 
91 161 
91 172 
91 182 
91 191 
91 199 
91 206 
91 212 
91 217 
91 222 
91 223 
91 224 
91 225 
92 93 
92 94 
92 95 
92 108 
92 123 
92 137 
92 150 
92 162 
92 173 
92 183 
92 192 
92 200 
92 207 
92 213 
92 218 
92 222 
92 226 
92 227 
92 228 
93 94 
93 95 
93 109 
93 124 
93 138 
93 151 
93 163 
93 174 
93 184 
93 193 
93 201 
93 208 
93 214 
93 219 
93 223 
93 226 
93 229 
93 230 
94 95 
94 110 
94 125 
94 139 
94 152 
94 164 
94 175 
94 185 
94 194 
94 202 
94 209 
94 215 
94 220 
94 224 
94 227 
94 229 
94 231 
95 111 
95 126 
95 140 
95 153 
95 165 
95 176 
95 186 
95 195 
95 203 
95 210 
95 216 
95 221 
95 225 
95 228 
95 230 
95 231 
96 97 
96 98 
96 99 
96 100 
96 101 
96 102 
96 103 
96 104 
96 105 
96 106 
96 107 
96 108 
96 109 
96 110 
96 111 
96 112 
96 113 
96 114 
96 115 
96 116 
96 117 
96 118 
96 119 
96 120 
96 121 
96 122 
96 123 
96 124 
96 125 
96 126 
97 98 
97 99 
97 100 
97 101 
97 102 
97 103 
97 104 
97 105 
97 106 
97 107 
97 108 
97 109 
97 110 
97 111 
97 112 
97 127 
97 128 
97 129 
97 130 
97 131 
97 132 
97 133 
97 134 
97 135 
97 136 
97 137 
97 138 
97 139 
97 140 
98 99 
98 100 
98 101 
98 102 
98 103 
98 104 
98 105 
98 106 
98 107 
98 108 
98 109 
98 110 
98 111 
98 113 
98 127 
98 141 
98 142 
98 143 
98 144 
98 145 
98 146 
98 147 
98 148 
98 149 
98 150 
98 151 
98 152 
98 153 
99 100 
99 101 
99 102 
99 103 
99 104 
99 105 
99 106 
99 107 
99 108 
99 109 
99 110 
99 111 
99 114 
99 128 
99 141 
99 154 
99 155 
99 156 
99 157 
99 158 
99 159 
99 160 
99 161 
99 162 
99 163 
99 164 
99 165 
100 101 
100 102 
100 103 
100 104 
100 105 
100 106 
100 107 
100 108 
100 109 
100 110 
100 111 
100 115 
100 129 
100 142 
100 154 
100 166 
100 167 
100 168 
100 169 
100 170 
100 171 
100 172 
100 173 
100 174 
100 175 
100 176 
101 102 
101 103 
101 104 
101 105 
101 106 
101 107 
101 108 
101 109 
101 110 
101 111 
101 116 
101 130 
101 143 
101 155 
101 166 
101 177 
101 178 
101 179 
101 180 
101 181 
101 182 
101 183 
101 184 
101 185 
101 186 
102 103 
102 104 
102 105 
102 106 
102 107 
102 108 
102 109 
102 110 
102 111 
102 117 
102 131 
102 144 
102 156 
102 167 
102 177 
102 187 
102 188 
102 189 
102 190 
102 191 
102 192 
102 193 
102 194 
102 195 
103 104 
103 105 
103 106 
103 107 
103 108 
103 109 
103 110 
103 111 
103 118 
103 132 
103 145 
103 157 
103 168 
103 178 
103 187 
103 196 
103 197 
103 198 
103 199 
103 200 
103 201 
103 202 
103 203 
104 105 
104 106 
104 107 
104 108 
104 109 
104 110 
104 111 
104 119 
104 133 
104 146 
104 158 
104 169 
104 179 
104 188 
104 196 
104 204 
104 205 
104 206 
104 207 
104 208 
104 209 
104 210 
105 106 
105 107 
105 108 
105 109 
105 110 
105 111 
105 120 
105 134 
105 147 
105 159 
105 170 
105 180 
105 189 
105 197 
105 204 
105 211 
105 212 
105 213 
105 214 
105 215 
105 216 
106 107 
106 108 
106 109 
106 110 
106 111 
106 121 
106 135 
106 148 
106 160 
106 171 
106 181 
106 190 
106 198 
106 205 
106 211 
106 217 
106 218 
106 219 
106 220 
106 221 
107 108 
107 109 
107 110 
107 111 
107 122 
107 136 
107 149 
107 161 
107 172 
107 182 
107 191 
107 199 
107 206 
107 212 
107 217 
107 222 
107 223 
107 224 
107 225 
108 109 
108 110 
108 111 
108 123 
108 137 
108 150 
108 162 
108 173 
108 183 
108 192 
108 200 
108 207 
108 213 
108 218 
108 222 
108 226 
108 227 
108 228 
109 110 
109 111 
109 124 
109 138 
109 151 
109 163 
109 174 
109 184 
109 193 
109 201 
109 208 
109 214 
109 219 
109 223 
109 226 
109 229 
109 230 
110 111 
110 125 
110 139 
110 152 
110 164 
110 175 
110 185 
110 194 
110 202 
110 209 
110 215 
110 220 
110 224 
110 227 
110 229 
110 231 
111 126 
111 140 
111 153 
111 165 
111 176 
111 186 
111 195 
111 203 
111 210 
111 216 
111 221 
111 225 
111 228 
111 230 
111 231 
112 113 
112 114 
112 115 
112 116 
112 117 
112 118 
112 119 
112 120 
112 121 
112 122 
112 123 
112 124 
112 125 
112 126 
112 127 
112 128 
112 129 
112 130 
112 131 
112 132 
112 133 
112 134 
112 135 
112 136 
112 137 
112 138 
112 139 
112 140 
113 114 
113 115 
113 116 
113 117 
113 118 
113 119 
113 120 
113 121 
113 122 
113 123 
113 124 
113 125 
113 126 
113 127 
113 141 
113 142 
113 143 
113 144 
113 145 
113 146 
113 147 
113 148 
113 149 
113 150 
113 151 
113 152 
113 153 
114 115 
114 116 
114 117 
114 118 
114 119 
114 120 
114 121 
114 122 
114 123 
114 124 
114 125 
114 126 
114 128 
114 141 
114 154 
114 155 
114 156 
114 157 
114 158 
114 159 
114 160 
114 161 
114 162 
114 163 
114 164 
114 165 
115 116 
115 117 
115 118 
115 119 
115 120 
115 121 
115 122 
115 123 
115 124 
115 125 
115 126 
115 129 
115 142 
115 154 
115 166 
115 167 
115 168 
115 169 
115 170 
115 171 
115 172 
115 173 
115 174 
115 175 
115 176 
116 117 
116 118 
116 119 
116 120 
116 121 
116 122 
116 123 
116 124 
116 125 
116 126 
116 130 
116 143 
116 155 
116 166 
116 177 
116 178 
116 179 
116 180 
116 181 
116 182 
116 183 
116 184 
116 185 
116 186 
117 118 
117 119 
117 120 
117 121 
117 122 
117 123 
117 124 
117 125 
117 126 
117 131 
117 144 
117 156 
117 167 
117 177 
117 187 
117 188 
117 189 
117 190 
117 191 
117 192 
117 193 
117 194 
117 195 
118 119 
118 120 
118 121 
118 122 
118 123 
118 124 
118 125 
118 126 
118 132 
118 145 
118 157 
118 168 
118 178 
118 187 
118 196 
118 197 
118 198 
118 199 
118 200 
118 201 
118 202 
118 203 
119 120 
119 121 
119 122 
119 123 
119 124 
119 125 
119 126 
119 133 
119 146 
119 158 
119 169 
119 179 
119 188 
119 196 
119 204 
119 205 
119 206 
119 207 
119 208 
119 209 
119 210 
120 121 
120 122 
120 123 
120 124 
120 125 
120 126 
120 134 
120 147 
120 159 
120 170 
120 180 
120 189 
120 197 
120 204 
120 211 
120 212 
120 213 
120 214 
120 215 
120 216 
121 122 
121 123 
121 124 
121 125 
121 126 
121 135 
121 148 
121 160 
121 171 
121 181 
121 190 
121 198 
121 205 
121 211 
121 217 
121 218 
121 219 
121 220 
121 221 
122 123 
122 124 
122 125 
122 126 
122 136 
122 149 
122 161 
122 172 
122 182 
122 191 
122 199 
122 206 
122 212 
122 217 
122 222 
122 223 
122 224 
122 225 
123 124 
123 125 
123 126 
123 137 
123 150 
123 162 
123 173 
123 183 
123 192 
123 200 
123 207 
123 213 
123 218 
123 222 
123 226 
123 227 
123 228 
124 125 
124 126 
124 138 
124 151 
124 163 
124 174 
124 184 
124 193 
124 201 
124 208 
124 214 
124 219 
124 223 
124 226 
124 229 
124 230 
125 126 
125 139 
125 152 
125 164 
125 175 
125 185 
125 194 
125 202 
125 209 
125 215 
125 220 
125 224 
125 227 
125 229 
125 231 
126 140 
126 153 
126 165 
126 176 
126 186 
126 195 
126 203 
126 210 
126 216 
126 221 
126 225 
126 228 
126 230 
126 231 
127 128 
127 129 
127 130 
127 131 
127 132 
127 133 
127 134 
127 135 
127 136 
127 137 
127 138 
127 139 
127 140 
127 141 
127 142 
127 143 
127 144 
127 145 
127 146 
127 147 
127 148 
127 149 
127 150 
127 151 
127 152 
127 153 
128 129 
128 130 
128 131 
128 132 
128 133 
128 134 
128 135 
128 136 
128 137 
128 138 
128 139 
128 140 
128 141 
128 154 
128 155 
128 156 
128 157 
128 158 
128 159 
128 160 
128 161 
128 162 
128 163 
128 164 
128 165 
129 130 
129 131 
129 132 
129 133 
129 134 
129 135 
129 136 
129 137 
129 138 
129 139 
129 140 
129 142 
129 154 
129 166 
129 167 
129 168 
129 169 
129 170 
129 171 
129 172 
129 173 
129 174 
129 175 
129 176 
130 131 
130 132 
130 133 
130 134 
130 135 
130 136 
130 137 
130 138 
130 139 
130 140 
130 143 
130 155 
130 166 
130 177 
130 178 
130 179 
130 180 
130 181 
130 182 
130 183 
130 184 
130 185 
130 186 
131 132 
131 133 
131 134 
131 135 
131 136 
131 137 
131 138 
131 139 
131 140 
131 144 
131 156 
131 167 
131 177 
131 187 
131 188 
131 189 
131 190 
131 191 
131 192 
131 193 
131 194 
131 195 
132 133 
132 134 
132 135 
132 136 
132 137 
132 138 
132 139 
132 140 
132 145 
132 157 
132 168 
132 178 
132 187 
132 196 
132 197 
132 198 
132 199 
132 200 
132 201 
132 202 
132 203 
133 134 
133 135 
133 136 
133 137 
133 138 
133 139 
133 140 
133 146 
133 158 
133 169 
133 179 
133 188 
133 196 
133 204 
133 205 
133 206 
133 207 
133 208 
133 209 
133 210 
134 135 
134 136 
134 137 
134 138 
134 139 
134 140 
134 147 
134 159 
134 170 
134 180 
134 189 
134 197 
134 204 
134 211 
134 212 
134 213 
134 214 
134 215 
134 216 
135 136 
135 137 
135 138 
135 139 
135 140 
135 148 
135 160 
135 171 
135 181 
135 190 
135 198 
135 205 
135 211 
135 217 
135 218 
135 219 
135 220 
135 221 
136 137 
136 138 
136 139 
136 140 
136 149 
136 161 
136 172 
136 182 
136 191 
136 199 
136 206 
136 212 
136 217 
136 222 
136 223 
136 224 
136 225 
137 138 
137 139 
137 140 
137 150 
137 162 
137 173 
137 183 
137 192 
137 200 
137 207 
137 213 
137 218 
137 222 
137 226 
137 227 
137 228 
138 139 
138 140 
138 151 
138 163 
138 174 
138 184 
138 193 
138 201 
138 208 
138 214 
138 219 
138 223 
138 226 
138 229 
138 230 
139 140 
139 152 
139 164 
139 175 
139 185 
139 194 
139 202 
139 209 
139 215 
139 220 
139 224 
139 227 
139 229 
139 231 
140 153 
140 165 
140 176 
140 186 
140 195 
140 203 
140 210 
140 216 
140 221 
140 225 
140 228 
140 230 
140 231 
141 142 
141 143 
141 144 
141 145 
141 146 
141 147 
141 148 
141 149 
141 150 
141 151 
141 152 
141 153 
141 154 
141 155 
141 156 
141 157 
141 158 
141 159 
141 160 
141 161 
141 162 
141 163 
141 164 
141 165 
142 143 
142 144 
142 145 
142 146 
142 147 
142 148 
142 149 
142 150 
142 151 
142 152 
142 153 
142 154 
142 166 
142 167 
142 168 
142 169 
142 170 
142 171 
142 172 
142 173 
142 174 
142 175 
142 176 
143 144 
143 145 
143 146 
143 147 
143 148 
143 149 
143 150 
143 151 
143 152 
143 153 
143 155 
143 166 
143 177 
143 178 
143 179 
143 180 
143 181 
143 182 
143 183 
143 184 
143 185 
143 186 
144 145 
144 146 
144 147 
144 148 
144 149 
144 150 
144 151 
144 152 
144 153 
144 156 
144 167 
144 177 
144 187 
144 188 
144 189 
144 190 
144 191 
144 192 
144 193 
144 194 
144 195 
145 146 
145 147 
145 148 
145 149 
145 150 
145 151 
145 152 
145 153 
145 157 
145 168 
145 178 
145 187 
145 196 
145 197 
145 198 
145 199 
145 200 
145 201 
145 202 
145 203 
146 147 
146 148 
146 149 
146 150 
146 151 
146 152 
146 153 
146 158 
146 169 
146 179 
146 188 
146 196 
146 204 
146 205 
146 206 
146 207 
146 208 
146 209 
146 210 
147 148 
147 149 
147 150 
147 151 
147 152 
147 153 
147 159 
147 170 
147 180 
147 189 
147 197 
147 204 
147 211 
147 212 
147 213 
147 214 
147 215 
147 216 
148 149 
148 150 
148 151 
148 152 
148 153 
148 160 
148 171 
148 181 
148 190 
148 198 
148 205 
148 211 
148 217 
148 218 
148 219 
148 220 
148 221 
149 150 
149 151 
149 152 
149 153 
149 161 
149 172 
149 182 
149 191 
149 199 
149 206 
149 212 
149 217 
149 222 
149 223 
149 224 
149 225 
150 151 
150 152 
150 153 
150 162 
150 173 
150 183 
150 192 
150 200 
150 207 
150 213 
150 218 
150 222 
150 226 
150 227 
150 228 
151 152 
151 153 
151 163 
151 174 
151 184 
151 193 
151 201 
151 208 
151 214 
151 219 
151 223 
151 226 
151 229 
151 230 
152 153 
152 164 
152 175 
152 185 
152 194 
152 202 
152 209 
152 215 
152 220 
152 224 
152 227 
152 229 
152 231 
153 165 
153 176 
153 186 
153 195 
153 203 
153 210 
153 216 
153 221 
153 225 
153 228 
153 230 
153 231 
154 155 
154 156 
154 157 
154 158 
154 159 
154 160 
154 161 
154 162 
154 163 
154 164 
154 165 
154 166 
154 167 
154 168 
154 169 
154 170 
154 171 
154 172 
154 173 
154 174 
154 175 
154 176 
155 156 
155 157 
155 158 
155 159 
155 160 
155 161 
155 162 
155 163 
155 164 
155 165 
155 166 
155 177 
155 178 
155 179 
155 180 
155 181 
155 182 
155 183 
155 184 
155 185 
155 186 
156 157 
156 158 
156 159 
156 160 
156 161 
156 162 
156 163 
156 164 
156 165 
156 167 
156 177 
156 187 
156 188 
156 189 
156 190 
156 191 
156 192 
156 193 
156 194 
156 195 
157 158 
157 159 
157 160 
157 161 
157 162 
157 163 
157 164 
157 165 
157 168 
157 178 
157 187 
157 196 
157 197 
157 198 
157 199 
157 200 
157 201 
157 202 
157 203 
158 159 
158 160 
158 161 
158 162 
158 163 
158 164 
158 165 
158 169 
158 179 
158 188 
158 196 
158 204 
158 205 
158 206 
158 207 
158 208 
158 209 
158 210 
159 160 
159 161 
159 162 
159 163 
159 164 
159 165 
159 170 
159 180 
159 189 
159 197 
159 204 
159 211 
159 212 
159 213 
159 214 
159 215 
159 216 
160 161 
160 162 
160 163 
160 164 
160 165 
160 171 
160 181 
160 190 
160 198 
160 205 
160 211 
160 217 
160 218 
160 219 
160 220 
160 221 
161 162 
161 163 
161 164 
161 165 
161 172 
161 182 
161 191 
161 199 
161 206 
161 212 
161 217 
161 222 
161 223 
161 224 
161 225 
162 163 
162 164 
162 165 
162 173 
162 183 
162 192 
162 200 
162 207 
162 213 
162 218 
162 222 
162 226 
162 227 
162 228 
163 164 
163 165 
163 174 
163 184 
163 193 
163 201 
163 208 
163 214 
163 219 
163 223 
163 226 
163 229 
163 230 
164 165 
164 175 
164 185 
164 194 
164 202 
164 209 
164 215 
164 220 
164 224 
164 227 
164 229 
164 231 
165 176 
165 186 
165 195 
165 203 
165 210 
165 216 
165 221 
165 225 
165 228 
165 230 
165 231 
166 167 
166 168 
166 169 
166 170 
166 171 
166 172 
166 173 
166 174 
166 175 
166 176 
166 177 
166 178 
166 179 
166 180 
166 181 
166 182 
166 183 
166 184 
166 185 
166 186 
167 168 
167 169 
167 170 
167 171 
167 172 
167 173 
167 174 
167 175 
167 176 
167 177 
167 187 
167 188 
167 189 
167 190 
167 191 
167 192 
167 193 
167 194 
167 195 
168 169 
168 170 
168 171 
168 172 
168 173 
168 174 
168 175 
168 176 
168 178 
168 187 
168 196 
168 197 
168 198 
168 199 
168 200 
168 201 
168 202 
168 203 
169 170 
169 171 
169 172 
169 173 
169 174 
169 175 
169 176 
169 179 
169 188 
169 196 
169 204 
169 205 
169 206 
169 207 
169 208 
169 209 
169 210 
170 171 
170 172 
170 173 
170 174 
170 175 
170 176 
170 180 
170 189 
170 197 
170 204 
170 211 
170 212 
170 213 
170 214 
170 215 
170 216 
171 172 
171 173 
171 174 
171 175 
171 176 
171 181 
171 190 
171 198 
171 205 
171 211 
171 217 
171 218 
171 219 
171 220 
171 221 
172 173 
172 174 
172 175 
172 176 
172 182 
172 191 
172 199 
172 206 
172 212 
172 217 
172 222 
172 223 
172 224 
172 225 
173 174 
173 175 
173 176 
173 183 
173 192 
173 200 
173 207 
173 213 
173 218 
173 222 
173 226 
173 227 
173 228 
174 175 
174 176 
174 184 
174 193 
174 201 
174 208 
174 214 
174 219 
174 223 
174 226 
174 229 
174 230 
175 176 
175 185 
175 194 
175 202 
175 209 
175 215 
175 220 
175 224 
175 227 
175 229 
175 231 
176 186 
176 195 
176 203 
176 210 
176 216 
176 221 
176 225 
176 228 
176 230 
176 231 
177 178 
177 179 
177 180 
177 181 
177 182 
177 183 
177 184 
177 185 
177 186 
177 187 
177 188 
177 189 
177 190 
177 191 
177 192 
177 193 
177 194 
177 195 
178 179 
178 180 
178 181 
178 182 
178 183 
178 184 
178 185 
178 186 
178 187 
178 196 
178 197 
178 198 
178 199 
178 200 
178 201 
178 202 
178 203 
179 180 
179 181 
179 182 
179 183 
179 184 
179 185 
179 186 
179 188 
179 196 
179 204 
179 205 
179 206 
179 207 
179 208 
179 209 
179 210 
180 181 
180 182 
180 183 
180 184 
180 185 
180 186 
180 189 
180 197 
180 204 
180 211 
180 212 
180 213 
180 214 
180 215 
180 216 
181 182 
181 183 
181 184 
181 185 
181 186 
181 190 
181 198 
181 205 
181 211 
181 217 
181 218 
181 219 
181 220 
181 221 
182 183 
182 184 
182 185 
182 186 
182 191 
182 199 
182 206 
182 212 
182 217 
182 222 
182 223 
182 224 
182 225 
183 184 
183 185 
183 186 
183 192 
183 200 
183 207 
183 213 
183 218 
183 222 
183 226 
183 227 
183 228 
184 185 
184 186 
184 193 
184 201 
184 208 
184 214 
184 219 
184 223 
184 226 
184 229 
184 230 
185 186 
185 194 
185 202 
185 209 
185 215 
185 220 
185 224 
185 227 
185 229 
185 231 
186 195 
186 203 
186 210 
186 216 
186 221 
186 225 
186 228 
186 230 
186 231 
187 188 
187 189 
187 190 
187 191 
187 192 
187 193 
187 194 
187 195 
187 196 
187 197 
187 198 
187 199 
187 200 
187 201 
187 202 
187 203 
188 189 
188 190 
188 191 
188 192 
188 193 
188 194 
188 195 
188 196 
188 204 
188 205 
188 206 
188 207 
188 208 
188 209 
188 210 
189 190 
189 191 
189 192 
189 193 
189 194 
189 195 
189 197 
189 204 
189 211 
189 212 
189 213 
189 214 
189 215 
189 216 
190 191 
190 192 
190 193 
190 194 
190 195 
190 198 
190 205 
190 211 
190 217 
190 218 
190 219 
190 220 
190 221 
191 192 
191 193 
191 194 
191 195 
191 199 
191 206 
191 212 
191 217 
191 222 
191 223 
191 224 
191 225 
192 193 
192 194 
192 195 
192 200 
192 207 
192 213 
192 218 
192 222 
192 226 
192 227 
192 228 
193 194 
193 195 
193 201 
193 208 
193 214 
193 219 
193 223 
193 226 
193 229 
193 230 
194 195 
194 202 
194 209 
194 215 
194 220 
194 224 
194 227 
194 229 
194 231 
195 203 
195 210 
195 216 
195 221 
195 225 
195 228 
195 230 
195 231 
196 197 
196 198 
196 199 
196 200 
196 201 
196 202 
196 203 
196 204 
196 205 
196 206 
196 207 
196 208 
196 209 
196 210 
197 198 
197 199 
197 200 
197 201 
197 202 
197 203 
197 204 
197 211 
197 212 
197 213 
197 214 
197 215 
197 216 
198 199 
198 200 
198 201 
198 202 
198 203 
198 205 
198 211 
198 217 
198 218 
198 219 
198 220 
198 221 
199 200 
199 201 
199 202 
199 203 
199 206 
199 212 
199 217 
199 222 
199 223 
199 224 
199 225 
200 201 
200 202 
200 203 
200 207 
200 213 
200 218 
200 222 
200 226 
200 227 
200 228 
201 202 
201 203 
201 208 
201 214 
201 219 
201 223 
201 226 
201 229 
201 230 
202 203 
202 209 
202 215 
202 220 
202 224 
202 227 
202 229 
202 231 
203 210 
203 216 
203 221 
203 225 
203 228 
203 230 
203 231 
204 205 
204 206 
204 207 
204 208 
204 209 
204 210 
204 211 
204 212 
204 213 
204 214 
204 215 
204 216 
205 206 
205 207 
205 208 
205 209 
205 210 
205 211 
205 217 
205 218 
205 219 
205 220 
205 221 
206 207 
206 208 
206 209 
206 210 
206 212 
206 217 
206 222 
206 223 
206 224 
206 225 
207 208 
207 209 
207 210 
207 213 
207 218 
207 222 
207 226 
207 227 
207 228 
208 209 
208 210 
208 214 
208 219 
208 223 
208 226 
208 229 
208 230 
209 210 
209 215 
209 220 
209 224 
209 227 
209 229 
209 231 
210 216 
210 221 
210 225 
210 228 
210 230 
210 231 
211 212 
211 213 
211 214 
211 215 
211 216 
211 217 
211 218 
211 219 
211 220 
211 221 
212 213 
212 214 
212 215 
212 216 
212 217 
212 222 
212 223 
212 224 
212 225 
213 214 
213 215 
213 216 
213 218 
213 222 
213 226 
213 227 
213 228 
214 215 
214 216 
214 219 
214 223 
214 226 
214 229 
214 230 
215 216 
215 220 
215 224 
215 227 
215 229 
215 231 
216 221 
216 225 
216 228 
216 230 
216 231 
217 218 
217 219 
217 220 
217 221 
217 222 
217 223 
217 224 
217 225 
218 219 
218 220 
218 221 
218 222 
218 226 
218 227 
218 228 
219 220 
219 221 
219 223 
219 226 
219 229 
219 230 
220 221 
220 224 
220 227 
220 229 
220 231 
221 225 
221 228 
221 230 
221 231 
222 223 
222 224 
222 225 
222 226 
222 227 
222 228 
223 224 
223 225 
223 226 
223 229 
223 230 
224 225 
224 227 
224 229 
224 231 
225 228 
225 230 
225 231 
226 227 
226 228 
226 229 
226 230 
227 228 
227 229 
227 231 
228 230 
228 231 
229 230 
229 231 
230 231 
